(declare-const X String)
; frame_ver2\s+communityLibrarySoftwareWinCrashcomHost\x3Atid\x3D\x25toolbar\x5Fid
(assert (not (str.in_re X (re.++ (str.to_re "frame_ver2") (re.+ (re.union (str.to_re " ") (str.to_re "\u{9}") (str.to_re "\u{a}") (str.to_re "\u{c}") (str.to_re "\u{d}"))) (str.to_re "communityLibrarySoftwareWinCrashcomHost:tid=%toolbar_id\u{a}")))))
(check-sat)

(exit)
